27 11 114 132 105 103 182 81 163 113 24 19 141 8 101 115 4 176 2 82 39 5 58 149 63 84 17 188 142 95 85 159 173 64 186 13 67 32 165 44 98 77 30 56 71 134 160 126 75 79 193 156 133 106 183 157 68 124 108 145 45 120 189 100 194 73 111 60 170 6 197 131 66 74 158 35 128 107 198 175 196 190 28 127 57 102 110 192 21 184 172 41 22 109 167 10 88 152 69 48 169 97 138 139 89 16 93 166 96 104 31 161 125 199 155 0 49 168 148 185 37 65 7 51 137 119 179 80 33 129 174 26 23 87 178 12 180 78 146 164 40 83 136 171 14 72 38 90 53 153 62 151 15 76 42 70 187 122 121 3 154 43 92 59 52 123 117 144 135 18 195 36 61 34 118 50 191 99 29 143 1 47 140 91 116 177 54 112 86 25 162 130 147 9 181 46 20 55 94 150